param n := 120;
param c := 1500
param : V : p w :=
   0	  52	  42
   1	  79	  69
   2	  77	  67
   3	  67	  57
   4	 103	  93
   5	 100	  90
   6	  48	  38
   7	  46	  36
   8	  55	  45
   9	  52	  42
  10	  43	  33
  11	  89	  79
  12	  37	  27
  13	  67	  57
  14	  54	  44
  15	  94	  84
  16	  96	  86
  17	 102	  92
  18	  56	  46
  19	  48	  38
  20	  95	  85
  21	  43	  33
  22	  92	  82
  23	  83	  73
  24	  59	  49
  25	  80	  70
  26	  69	  59
  27	  33	  23
  28	  67	  57
  29	  82	  72
  30	  84	  74
  31	  79	  69
  32	  43	  33
  33	  52	  42
  34	  38	  28
  35	  56	  46
  36	  40	  30
  37	  74	  64
  38	  39	  29
  39	  84	  74
  40	  51	  41
  41	  59	  49
  42	  65	  55
  43	 108	  98
  44	  90	  80
  45	  42	  32
  46	  35	  25
  47	  48	  38
  48	  92	  82
  49	  40	  30
  50	  45	  35
  51	  49	  39
  52	  67	  57
  53	  94	  84
  54	  72	  62
  55	  60	  50
  56	  65	  55
  57	  37	  27
  58	  40	  30
  59	  46	  36
  60	  30	  20
  61	  88	  78
  62	  57	  47
  63	  36	  26
  64	  55	  45
  65	  51	  41
  66	  68	  58
  67	 108	  98
  68	 101	  91
  69	 106	  96
  70	  83	  73
  71	  94	  84
  72	  47	  37
  73	 103	  93
  74	 101	  91
  75	  53	  43
  76	  83	  73
  77	  95	  85
  78	  91	  81
  79	  89	  79
  80	  81	  71
  81	  90	  80
  82	  86	  76
  83	  93	  83
  84	  51	  41
  85	  88	  78
  86	  80	  70
  87	  33	  23
  88	  52	  42
  89	  97	  87
  90	  53	  43
  91	  94	  84
  92	  70	  60
  93	  65	  55
  94	  59	  49
  95	  88	  78
  96	  83	  73
  97	  72	  62
  98	  46	  36
  99	  54	  44
 100	 104	  94
 101	  79	  69
 102	  42	  32
 103	 106	  96
 104	  80	  70
 105	  94	  84
 106	  68	  58
 107	  88	  78
 108	  35	  25
 109	  90	  80
 110	  68	  58
 111	  76	  66
 112	  93	  83
 113	  34	  24
 114	 108	  98
 115	  70	  60
 116	  52	  42
 117	  53	  43
 118	  53	  43
 119	  49	  39
;

set E :=
   0	  12
   0	  14
   0	  18
   0	  21
   0	  25
   0	  28
   0	  29
   0	  33
   0	  37
   0	  38
   0	  41
   0	  43
   0	  45
   0	  46
   0	  50
   0	  53
   0	  56
   0	  57
   0	  61
   0	  65
   0	  67
   0	  69
   0	  73
   0	  74
   0	  75
   0	  76
   0	  77
   0	  81
   0	  82
   0	  83
   0	  91
   0	  92
   0	  94
   0	  95
   0	  98
   0	 103
   0	 104
   0	 106
   0	 110
   0	 111
   0	 113
   1	  10
   1	  18
   1	  21
   1	  22
   1	  27
   1	  29
   1	  33
   1	  39
   1	  41
   1	  43
   1	  45
   1	  47
   1	  53
   1	  58
   1	  68
   1	  82
   1	  83
   1	  86
   1	  96
   1	  98
   1	 101
   1	 102
   1	 106
   1	 107
   1	 108
   1	 109
   1	 116
   2	  18
   2	  19
   2	  21
   2	  22
   2	  29
   2	  33
   2	  35
   2	  55
   2	  56
   2	  66
   2	  68
   2	  74
   2	  80
   2	  87
   2	  89
   2	  90
   2	  95
   2	  98
   2	 101
   2	 103
   2	 104
   2	 111
   2	 112
   2	 115
   2	 118
   3	   7
   3	   9
   3	  10
   3	  12
   3	  14
   3	  21
   3	  22
   3	  24
   3	  27
   3	  30
   3	  33
   3	  35
   3	  40
   3	  41
   3	  42
   3	  44
   3	  50
   3	  55
   3	  59
   3	  61
   3	  62
   3	  63
   3	  64
   3	  65
   3	  68
   3	  69
   3	  80
   3	  89
   3	  92
   3	  93
   3	  95
   3	  96
   3	  97
   3	 107
   3	 108
   3	 111
   3	 113
   3	 114
   3	 115
   3	 116
   4	   9
   4	  10
   4	  13
   4	  19
   4	  22
   4	  26
   4	  29
   4	  32
   4	  33
   4	  38
   4	  40
   4	  41
   4	  54
   4	  55
   4	  56
   4	  58
   4	  59
   4	  65
   4	  67
   4	  71
   4	  75
   4	  84
   4	  87
   4	  91
   4	  94
   4	  95
   4	 108
   4	 111
   4	 113
   4	 118
   5	  10
   5	  16
   5	  20
   5	  21
   5	  26
   5	  30
   5	  31
   5	  38
   5	  43
   5	  47
   5	  48
   5	  50
   5	  54
   5	  56
   5	  58
   5	  61
   5	  64
   5	  65
   5	  66
   5	  69
   5	  71
   5	  73
   5	  76
   5	  79
   5	  81
   5	  86
   5	  89
   5	  92
   5	 100
   5	 104
   5	 108
   5	 109
   6	   7
   6	   9
   6	  16
   6	  17
   6	  25
   6	  28
   6	  29
   6	  32
   6	  39
   6	  44
   6	  45
   6	  49
   6	  50
   6	  55
   6	  56
   6	  58
   6	  68
   6	  82
   6	  83
   6	  92
   6	  94
   6	  95
   6	 101
   6	 109
   6	 114
   6	 115
   6	 117
   6	 119
   7	   9
   7	  18
   7	  19
   7	  20
   7	  23
   7	  25
   7	  28
   7	  30
   7	  40
   7	  41
   7	  44
   7	  45
   7	  48
   7	  65
   7	  69
   7	  74
   7	  79
   7	  80
   7	  82
   7	  83
   7	  84
   7	  87
   7	  88
   7	  91
   7	  93
   7	  94
   7	  97
   7	 104
   7	 108
   7	 118
   7	 119
   8	   9
   8	  11
   8	  12
   8	  14
   8	  17
   8	  20
   8	  22
   8	  25
   8	  27
   8	  28
   8	  32
   8	  34
   8	  37
   8	  39
   8	  41
   8	  45
   8	  46
   8	  49
   8	  54
   8	  55
   8	  58
   8	  59
   8	  60
   8	  65
   8	  67
   8	  70
   8	  71
   8	  73
   8	  84
   8	  86
   8	  90
   8	  91
   8	  92
   8	  95
   8	  97
   8	  99
   8	 100
   8	 101
   8	 102
   8	 103
   8	 110
   8	 117
   9	  14
   9	  15
   9	  19
   9	  26
   9	  31
   9	  34
   9	  35
   9	  37
   9	  38
   9	  45
   9	  52
   9	  55
   9	  62
   9	  67
   9	  69
   9	  73
   9	  85
   9	  87
   9	  89
   9	  90
   9	 102
   9	 105
   9	 106
   9	 109
   9	 110
   9	 112
   9	 113
   9	 114
   9	 115
   9	 116
   9	 117
   9	 119
  10	  15
  10	  19
  10	  20
  10	  21
  10	  22
  10	  23
  10	  25
  10	  30
  10	  32
  10	  33
  10	  36
  10	  39
  10	  52
  10	  53
  10	  57
  10	  59
  10	  60
  10	  62
  10	  63
  10	  64
  10	  68
  10	  84
  10	  85
  10	  89
  10	  91
  10	  96
  10	  99
  10	 100
  10	 102
  10	 103
  10	 106
  10	 107
  10	 110
  10	 111
  10	 115
  10	 116
  11	  15
  11	  23
  11	  24
  11	  32
  11	  37
  11	  40
  11	  46
  11	  52
  11	  61
  11	  64
  11	  67
  11	  71
  11	  76
  11	  81
  11	  84
  11	  88
  11	  89
  11	  92
  11	  94
  11	  95
  11	 100
  11	 103
  11	 106
  11	 110
  11	 112
  11	 113
  11	 114
  11	 115
  11	 116
  11	 117
  12	  15
  12	  17
  12	  22
  12	  24
  12	  25
  12	  27
  12	  30
  12	  38
  12	  44
  12	  47
  12	  52
  12	  57
  12	  66
  12	  70
  12	  74
  12	  75
  12	  77
  12	  80
  12	  82
  12	  84
  12	  86
  12	  88
  12	  90
  12	  94
  12	  96
  12	 100
  12	 103
  12	 110
  12	 111
  12	 112
  12	 116
  12	 119
  13	  33
  13	  35
  13	  36
  13	  37
  13	  40
  13	  41
  13	  42
  13	  50
  13	  52
  13	  57
  13	  58
  13	  62
  13	  63
  13	  66
  13	  68
  13	  72
  13	  73
  13	  81
  13	  84
  13	  85
  13	  86
  13	  89
  13	  90
  13	  91
  13	  93
  13	  99
  13	 101
  13	 103
  13	 110
  13	 111
  13	 112
  13	 118
  13	 119
  14	  17
  14	  18
  14	  22
  14	  23
  14	  30
  14	  31
  14	  32
  14	  37
  14	  38
  14	  43
  14	  45
  14	  48
  14	  57
  14	  60
  14	  63
  14	  69
  14	  75
  14	  78
  14	  80
  14	  83
  14	  85
  14	  87
  14	  96
  14	  97
  14	  99
  14	 102
  14	 105
  14	 106
  14	 111
  14	 112
  14	 115
  15	  22
  15	  23
  15	  28
  15	  31
  15	  39
  15	  42
  15	  46
  15	  49
  15	  51
  15	  52
  15	  53
  15	  54
  15	  55
  15	  56
  15	  60
  15	  64
  15	  68
  15	  71
  15	  74
  15	  83
  15	  85
  15	  87
  15	  88
  15	  93
  15	  94
  15	  95
  15	  97
  15	  98
  15	 104
  15	 114
  15	 117
  16	  17
  16	  20
  16	  21
  16	  24
  16	  31
  16	  32
  16	  33
  16	  34
  16	  40
  16	  44
  16	  45
  16	  47
  16	  53
  16	  57
  16	  60
  16	  62
  16	  64
  16	  67
  16	  68
  16	  69
  16	  81
  16	  82
  16	  84
  16	  85
  16	  94
  16	 101
  16	 104
  16	 108
  16	 111
  16	 112
  16	 114
  16	 115
  16	 119
  17	  19
  17	  20
  17	  21
  17	  26
  17	  41
  17	  42
  17	  45
  17	  48
  17	  56
  17	  61
  17	  62
  17	  67
  17	  68
  17	  69
  17	  71
  17	  79
  17	  84
  17	  90
  17	  92
  17	  96
  17	  97
  17	  99
  17	 100
  17	 104
  17	 112
  17	 116
  17	 117
  17	 119
  18	  21
  18	  26
  18	  31
  18	  36
  18	  40
  18	  42
  18	  45
  18	  48
  18	  49
  18	  55
  18	  62
  18	  66
  18	  67
  18	  68
  18	  75
  18	  78
  18	  87
  18	  88
  18	  99
  18	 101
  18	 107
  18	 110
  18	 113
  18	 116
  18	 117
  18	 119
  19	  21
  19	  22
  19	  23
  19	  25
  19	  27
  19	  29
  19	  31
  19	  39
  19	  40
  19	  57
  19	  59
  19	  60
  19	  61
  19	  67
  19	  69
  19	  72
  19	  73
  19	  75
  19	  80
  19	  83
  19	  86
  19	  96
  19	  97
  19	  98
  19	 100
  19	 106
  19	 110
  19	 111
  19	 112
  20	  21
  20	  25
  20	  27
  20	  29
  20	  37
  20	  43
  20	  44
  20	  47
  20	  50
  20	  51
  20	  62
  20	  66
  20	  67
  20	  72
  20	  81
  20	  84
  20	  85
  20	  87
  20	  88
  20	  92
  20	 105
  20	 107
  20	 108
  20	 112
  20	 118
  20	 119
  21	  23
  21	  30
  21	  34
  21	  39
  21	  43
  21	  46
  21	  48
  21	  53
  21	  56
  21	  58
  21	  64
  21	  67
  21	  68
  21	  71
  21	  75
  21	  82
  21	  83
  21	  86
  21	  92
  21	  93
  21	  98
  21	 102
  21	 105
  21	 112
  21	 114
  21	 118
  22	  24
  22	  30
  22	  31
  22	  35
  22	  38
  22	  39
  22	  48
  22	  49
  22	  51
  22	  53
  22	  56
  22	  58
  22	  59
  22	  70
  22	  75
  22	  77
  22	  78
  22	  80
  22	  82
  22	  87
  22	  97
  22	  99
  22	 100
  22	 101
  22	 104
  22	 105
  22	 118
  22	 119
  23	  26
  23	  30
  23	  39
  23	  41
  23	  42
  23	  43
  23	  46
  23	  47
  23	  50
  23	  51
  23	  61
  23	  62
  23	  65
  23	  71
  23	  73
  23	  74
  23	  75
  23	  77
  23	  78
  23	  80
  23	  83
  23	  84
  23	  86
  23	  87
  23	  89
  23	  94
  23	  95
  23	 100
  23	 101
  23	 106
  23	 112
  23	 113
  23	 114
  23	 117
  24	  27
  24	  30
  24	  36
  24	  38
  24	  42
  24	  45
  24	  48
  24	  51
  24	  54
  24	  56
  24	  57
  24	  62
  24	  73
  24	  75
  24	  78
  24	  81
  24	  85
  24	  86
  24	  87
  24	  91
  24	  93
  24	  97
  24	 112
  24	 114
  24	 117
  24	 118
  24	 119
  25	  30
  25	  37
  25	  41
  25	  45
  25	  46
  25	  53
  25	  54
  25	  65
  25	  66
  25	  68
  25	  69
  25	  75
  25	  77
  25	  80
  25	  86
  25	  87
  25	  88
  25	  98
  25	 101
  25	 103
  25	 107
  25	 113
  25	 114
  25	 118
  26	  29
  26	  41
  26	  43
  26	  47
  26	  49
  26	  55
  26	  57
  26	  58
  26	  60
  26	  62
  26	  67
  26	  69
  26	  70
  26	  71
  26	  72
  26	  75
  26	  77
  26	  83
  26	  85
  26	  89
  26	  91
  26	  95
  26	 102
  26	 103
  26	 111
  26	 112
  26	 117
  26	 119
  27	  33
  27	  35
  27	  38
  27	  39
  27	  42
  27	  48
  27	  53
  27	  54
  27	  57
  27	  58
  27	  60
  27	  63
  27	  72
  27	  84
  27	  90
  27	  96
  27	  97
  27	  98
  27	 100
  27	 102
  27	 105
  27	 108
  27	 112
  27	 113
  28	  29
  28	  31
  28	  32
  28	  36
  28	  38
  28	  42
  28	  43
  28	  44
  28	  46
  28	  47
  28	  49
  28	  54
  28	  57
  28	  66
  28	  68
  28	  81
  28	  89
  28	  90
  28	  92
  28	 102
  28	 103
  28	 104
  28	 108
  28	 109
  28	 110
  28	 113
  28	 117
  29	  30
  29	  33
  29	  35
  29	  37
  29	  38
  29	  40
  29	  48
  29	  49
  29	  53
  29	  56
  29	  57
  29	  62
  29	  63
  29	  75
  29	  84
  29	  87
  29	  89
  29	  90
  29	  99
  29	 102
  29	 104
  29	 105
  29	 106
  29	 109
  29	 112
  29	 113
  29	 116
  30	  33
  30	  35
  30	  40
  30	  49
  30	  50
  30	  63
  30	  64
  30	  65
  30	  68
  30	  70
  30	  71
  30	  72
  30	  73
  30	  76
  30	  77
  30	  81
  30	  87
  30	  92
  30	  95
  30	  96
  30	 101
  30	 102
  30	 106
  30	 110
  30	 114
  30	 115
  30	 116
  30	 119
  31	  33
  31	  35
  31	  39
  31	  41
  31	  48
  31	  49
  31	  50
  31	  52
  31	  54
  31	  59
  31	  60
  31	  61
  31	  69
  31	  71
  31	  75
  31	  77
  31	  78
  31	  80
  31	  81
  31	  87
  31	  88
  31	  93
  31	  96
  31	  98
  31	 100
  31	 101
  31	 106
  31	 109
  31	 115
  31	 116
  32	  38
  32	  44
  32	  52
  32	  54
  32	  62
  32	  65
  32	  71
  32	  76
  32	  80
  32	  81
  32	  86
  32	  91
  32	  92
  32	 103
  32	 105
  32	 111
  32	 113
  32	 118
  33	  34
  33	  40
  33	  42
  33	  43
  33	  47
  33	  55
  33	  60
  33	  73
  33	  75
  33	  81
  33	  83
  33	  85
  33	  92
  33	  93
  33	 103
  33	 105
  33	 106
  33	 111
  34	  36
  34	  37
  34	  39
  34	  41
  34	  45
  34	  46
  34	  52
  34	  66
  34	  68
  34	  70
  34	  73
  34	  75
  34	  77
  34	  78
  34	  87
  34	  89
  34	  97
  34	  99
  34	 102
  34	 106
  34	 107
  34	 109
  34	 111
  34	 114
  34	 116
  34	 119
  35	  36
  35	  38
  35	  42
  35	  46
  35	  47
  35	  56
  35	  58
  35	  60
  35	  62
  35	  70
  35	  71
  35	  73
  35	  76
  35	  80
  35	  81
  35	  83
  35	  86
  35	  96
  35	  98
  35	 100
  35	 101
  35	 102
  35	 104
  35	 107
  36	  48
  36	  49
  36	  52
  36	  54
  36	  59
  36	  69
  36	  71
  36	  76
  36	  80
  36	  81
  36	  82
  36	  84
  36	  85
  36	  87
  36	  89
  36	  93
  36	  98
  36	 101
  36	 107
  36	 108
  36	 109
  36	 114
  36	 119
  37	  43
  37	  45
  37	  46
  37	  47
  37	  48
  37	  49
  37	  52
  37	  56
  37	  59
  37	  61
  37	  70
  37	  71
  37	  75
  37	  77
  37	  85
  37	  86
  37	  87
  37	  88
  37	  89
  37	  91
  37	  92
  37	  99
  37	 105
  37	 106
  37	 108
  37	 114
  37	 117
  38	  42
  38	  44
  38	  48
  38	  54
  38	  63
  38	  74
  38	  77
  38	  85
  38	  87
  38	  95
  38	 109
  38	 113
  38	 114
  38	 117
  38	 119
  39	  42
  39	  43
  39	  46
  39	  47
  39	  48
  39	  55
  39	  59
  39	  64
  39	  65
  39	  66
  39	  72
  39	  73
  39	  76
  39	  77
  39	  79
  39	  83
  39	  84
  39	  87
  39	  90
  39	  92
  39	  95
  39	  98
  39	 104
  39	 106
  39	 108
  39	 113
  39	 116
  39	 119
  40	  41
  40	  42
  40	  44
  40	  49
  40	  52
  40	  57
  40	  59
  40	  62
  40	  67
  40	  79
  40	  85
  40	  86
  40	  90
  40	  95
  40	 102
  40	 105
  40	 109
  40	 110
  40	 114
  41	  44
  41	  46
  41	  48
  41	  52
  41	  55
  41	  56
  41	  58
  41	  67
  41	  73
  41	  74
  41	  76
  41	  78
  41	  92
  41	  94
  41	  95
  41	  97
  41	  98
  41	 102
  41	 103
  41	 105
  41	 107
  41	 109
  41	 110
  41	 119
  42	  47
  42	  51
  42	  55
  42	  57
  42	  59
  42	  61
  42	  62
  42	  71
  42	  72
  42	  74
  42	  77
  42	  80
  42	  81
  42	  84
  42	  85
  42	  86
  42	  89
  42	  92
  42	  93
  42	  94
  42	  97
  42	 102
  42	 104
  42	 114
  42	 117
  43	  50
  43	  52
  43	  53
  43	  59
  43	  60
  43	  61
  43	  65
  43	  69
  43	  72
  43	  73
  43	  75
  43	  78
  43	  79
  43	  91
  43	  92
  43	  94
  43	  95
  43	  97
  43	 101
  43	 105
  43	 107
  43	 108
  43	 109
  43	 110
  43	 116
  44	  46
  44	  54
  44	  56
  44	  60
  44	  61
  44	  62
  44	  64
  44	  66
  44	  67
  44	  70
  44	  73
  44	  74
  44	  77
  44	  79
  44	  80
  44	  84
  44	  85
  44	  99
  44	 100
  44	 102
  44	 104
  44	 106
  44	 109
  44	 113
  44	 116
  44	 117
  45	  47
  45	  48
  45	  51
  45	  57
  45	  58
  45	  61
  45	  65
  45	  67
  45	  68
  45	  69
  45	  72
  45	  74
  45	  77
  45	  83
  45	  87
  45	  89
  45	  91
  45	  92
  45	  96
  45	  97
  45	  98
  45	 104
  45	 106
  45	 107
  45	 113
  45	 114
  46	  48
  46	  52
  46	  54
  46	  55
  46	  58
  46	  63
  46	  66
  46	  68
  46	  70
  46	  71
  46	  78
  46	  82
  46	  87
  46	  91
  46	  92
  46	  94
  46	  98
  46	 100
  46	 101
  46	 106
  46	 108
  46	 113
  46	 115
  46	 118
  47	  50
  47	  51
  47	  55
  47	  57
  47	  61
  47	  68
  47	  72
  47	  75
  47	  76
  47	  77
  47	  79
  47	  97
  47	 102
  47	 104
  47	 109
  47	 111
  47	 113
  47	 119
  48	  49
  48	  50
  48	  51
  48	  53
  48	  67
  48	  73
  48	  76
  48	  82
  48	  85
  48	  88
  48	  89
  48	  93
  48	  98
  48	  99
  48	 101
  48	 103
  48	 105
  48	 108
  48	 110
  48	 111
  48	 113
  48	 114
  48	 116
  48	 117
  49	  53
  49	  54
  49	  57
  49	  67
  49	  70
  49	  71
  49	  72
  49	  80
  49	  85
  49	  86
  49	  87
  49	  95
  49	 101
  49	 102
  49	 105
  49	 108
  49	 109
  49	 110
  49	 111
  49	 113
  49	 115
  49	 117
  50	  51
  50	  55
  50	  57
  50	  66
  50	  69
  50	  72
  50	  77
  50	  79
  50	  80
  50	  81
  50	  82
  50	  86
  50	  97
  50	 101
  50	 112
  50	 114
  50	 117
  51	  59
  51	  62
  51	  66
  51	  76
  51	  78
  51	  79
  51	  84
  51	  87
  51	  88
  51	  89
  51	  92
  51	  94
  51	  96
  51	  98
  51	 105
  51	 108
  51	 115
  52	  61
  52	  63
  52	  64
  52	  76
  52	  79
  52	  81
  52	  83
  52	  89
  52	  91
  52	 114
  52	 115
  52	 119
  53	  59
  53	  62
  53	  65
  53	  67
  53	  71
  53	  74
  53	  76
  53	  77
  53	  78
  53	  79
  53	  81
  53	  82
  53	  83
  53	  90
  53	  94
  53	  96
  53	  98
  53	 103
  53	 104
  53	 105
  53	 106
  53	 112
  54	  55
  54	  57
  54	  58
  54	  60
  54	  61
  54	  64
  54	  70
  54	  73
  54	  74
  54	  75
  54	  77
  54	  78
  54	  79
  54	  85
  54	  89
  54	  95
  54	  99
  54	 100
  54	 108
  54	 109
  54	 113
  55	  56
  55	  59
  55	  63
  55	  68
  55	  70
  55	  71
  55	  73
  55	  76
  55	  78
  55	  79
  55	  81
  55	  86
  55	  89
  55	  90
  55	  91
  55	  94
  55	  97
  55	 100
  55	 102
  55	 107
  55	 114
  55	 116
  55	 117
  55	 118
  55	 119
  56	  61
  56	  70
  56	  75
  56	  77
  56	  80
  56	  82
  56	  85
  56	  91
  56	  92
  56	  93
  56	  95
  56	  98
  56	 103
  56	 106
  56	 107
  56	 109
  56	 110
  56	 114
  56	 118
  56	 119
  57	  58
  57	  67
  57	  75
  57	  76
  57	  77
  57	  82
  57	  84
  57	  85
  57	  86
  57	  88
  57	  93
  57	  94
  57	  95
  57	 103
  57	 106
  57	 108
  57	 110
  57	 112
  57	 113
  57	 115
  57	 116
  57	 117
  58	  64
  58	  66
  58	  67
  58	  68
  58	  70
  58	  71
  58	  72
  58	  74
  58	  75
  58	  76
  58	  81
  58	  83
  58	  87
  58	 102
  58	 107
  58	 112
  58	 115
  58	 116
  58	 118
  58	 119
  59	  61
  59	  64
  59	  69
  59	  72
  59	  76
  59	  77
  59	  78
  59	  81
  59	  87
  59	  93
  59	  94
  59	 102
  59	 104
  59	 109
  59	 110
  59	 111
  59	 112
  59	 113
  59	 114
  59	 116
  60	  61
  60	  64
  60	  69
  60	  76
  60	  77
  60	  79
  60	  82
  60	  84
  60	  87
  60	  97
  60	 102
  60	 104
  60	 106
  60	 108
  60	 110
  60	 111
  60	 115
  60	 116
  61	  62
  61	  63
  61	  64
  61	  65
  61	  67
  61	  68
  61	  69
  61	  71
  61	  74
  61	  75
  61	  78
  61	  80
  61	  81
  61	  85
  61	  86
  61	  88
  61	  94
  61	 100
  61	 102
  61	 105
  61	 113
  61	 115
  61	 116
  61	 118
  62	  65
  62	  67
  62	  70
  62	  75
  62	  77
  62	  78
  62	  79
  62	  80
  62	  83
  62	  85
  62	  86
  62	  89
  62	  95
  62	  96
  62	  97
  62	 100
  62	 105
  62	 112
  62	 113
  62	 116
  62	 119
  63	  64
  63	  65
  63	  66
  63	  68
  63	  69
  63	  70
  63	  72
  63	  74
  63	  75
  63	  76
  63	  78
  63	  80
  63	  81
  63	  86
  63	  89
  63	  91
  63	  93
  63	  98
  63	 104
  63	 109
  63	 115
  64	  65
  64	  66
  64	  72
  64	  73
  64	  74
  64	  78
  64	  81
  64	  83
  64	  84
  64	  87
  64	  88
  64	  95
  64	  98
  64	  99
  64	 101
  64	 103
  64	 108
  64	 109
  64	 112
  64	 113
  64	 117
  64	 118
  65	  70
  65	  71
  65	  72
  65	  73
  65	  78
  65	  88
  65	  90
  65	  99
  65	 106
  65	 109
  65	 112
  65	 113
  65	 118
  66	  68
  66	  71
  66	  74
  66	  75
  66	  76
  66	  79
  66	  80
  66	  83
  66	  86
  66	  87
  66	  90
  66	  94
  66	  95
  66	 104
  66	 106
  66	 107
  66	 112
  66	 119
  67	  68
  67	  69
  67	  71
  67	  74
  67	  75
  67	  77
  67	  80
  67	  81
  67	  88
  67	  90
  67	  93
  67	  97
  67	  98
  67	 101
  67	 106
  67	 109
  67	 112
  67	 114
  68	  70
  68	  72
  68	  73
  68	  75
  68	  77
  68	  78
  68	  84
  68	  85
  68	  88
  68	  89
  68	  91
  68	  93
  68	  97
  68	 100
  68	 103
  68	 106
  68	 107
  68	 108
  68	 110
  68	 116
  69	  71
  69	  72
  69	  73
  69	  74
  69	  75
  69	  79
  69	  80
  69	  86
  69	  88
  69	  92
  69	  97
  69	 100
  69	 106
  69	 109
  69	 110
  69	 111
  69	 112
  69	 116
  70	  76
  70	  77
  70	  84
  70	  86
  70	  89
  70	  91
  70	  97
  70	  99
  70	 103
  70	 104
  70	 105
  70	 108
  70	 109
  70	 111
  70	 112
  70	 113
  71	  74
  71	  75
  71	  76
  71	  84
  71	  85
  71	  86
  71	  87
  71	  96
  71	 113
  71	 114
  72	  73
  72	  74
  72	  79
  72	  80
  72	  83
  72	  84
  72	  85
  72	  87
  72	  95
  72	  97
  72	 100
  72	 101
  72	 102
  72	 103
  72	 104
  72	 109
  72	 111
  72	 113
  72	 115
  72	 116
  72	 119
  73	  74
  73	  80
  73	  82
  73	  83
  73	  84
  73	  90
  73	  91
  73	  93
  73	  94
  73	  98
  73	 100
  73	 101
  73	 104
  73	 106
  73	 108
  74	  80
  74	  81
  74	  82
  74	  83
  74	  86
  74	  89
  74	  96
  74	  99
  74	 101
  74	 105
  74	 109
  74	 111
  74	 114
  74	 115
  74	 117
  74	 118
  75	  77
  75	  79
  75	  82
  75	  83
  75	  92
  75	  93
  75	  95
  75	  98
  75	 100
  75	 106
  75	 111
  75	 112
  75	 115
  75	 117
  76	  78
  76	  87
  76	  88
  76	  92
  76	  94
  76	 106
  76	 107
  76	 114
  76	 117
  76	 118
  76	 119
  77	  80
  77	  82
  77	  84
  77	  85
  77	  87
  77	  88
  77	  91
  77	  93
  77	  95
  77	 102
  77	 104
  77	 107
  77	 108
  77	 111
  77	 112
  77	 116
  78	  81
  78	  84
  78	  85
  78	  90
  78	  91
  78	  92
  78	  93
  78	 104
  78	 105
  78	 108
  78	 111
  78	 113
  78	 115
  78	 117
  78	 119
  79	  83
  79	  84
  79	  91
  79	  93
  79	  94
  79	  98
  79	 101
  79	 104
  79	 105
  79	 106
  79	 108
  79	 109
  80	  82
  80	  87
  80	  88
  80	  91
  80	  97
  80	 100
  80	 101
  80	 102
  80	 104
  80	 105
  80	 108
  80	 109
  80	 112
  80	 113
  80	 114
  80	 119
  81	  82
  81	  87
  81	  92
  81	  96
  81	  98
  81	  99
  81	 107
  81	 108
  82	  84
  82	  86
  82	  90
  82	  93
  82	  99
  82	 101
  82	 106
  82	 107
  82	 108
  82	 115
  82	 116
  83	  87
  83	  91
  83	  92
  83	 104
  83	 109
  83	 111
  83	 112
  83	 115
  83	 117
  83	 118
  83	 119
  84	 100
  84	 106
  84	 115
  84	 116
  84	 119
  85	  88
  85	  92
  85	  94
  85	  96
  85	 107
  85	 109
  85	 111
  85	 116
  86	  88
  86	  89
  86	  95
  86	  96
  86	  99
  86	 104
  86	 106
  86	 108
  86	 109
  86	 113
  86	 115
  86	 116
  86	 119
  87	  89
  87	  94
  87	  96
  87	 100
  87	 103
  87	 104
  87	 105
  87	 107
  87	 112
  87	 114
  87	 116
  87	 117
  88	  89
  88	  91
  88	  94
  88	  96
  88	 116
  88	 117
  88	 118
  89	  93
  89	  94
  89	  97
  89	  98
  89	  99
  89	 101
  89	 104
  89	 105
  89	 108
  89	 112
  89	 114
  89	 116
  89	 117
  90	  93
  90	  94
  90	  97
  90	  98
  90	  99
  90	 100
  90	 101
  90	 103
  90	 109
  90	 116
  90	 117
  91	  94
  91	 105
  91	 106
  91	 111
  91	 114
  91	 115
  91	 116
  91	 117
  92	  93
  92	  94
  92	  97
  92	  98
  92	 106
  92	 107
  92	 112
  92	 114
  92	 117
  93	 100
  93	 101
  93	 104
  93	 105
  93	 106
  93	 110
  94	  95
  94	  96
  94	  99
  94	 105
  94	 108
  94	 111
  94	 114
  94	 117
  94	 118
  95	  96
  95	  97
  95	 101
  95	 102
  95	 104
  95	 105
  95	 106
  95	 115
  95	 117
  95	 118
  95	 119
  96	 102
  96	 112
  96	 113
  96	 114
  97	  98
  97	 100
  97	 103
  97	 104
  97	 110
  97	 112
  97	 113
  98	  99
  98	 100
  98	 101
  98	 107
  98	 108
  98	 110
  98	 111
  98	 112
  98	 113
  98	 115
  98	 116
  99	 102
  99	 105
  99	 107
  99	 108
 100	 101
 100	 104
 100	 111
 100	 117
 100	 119
 101	 102
 101	 109
 102	 103
 102	 111
 102	 118
 102	 119
 103	 105
 103	 107
 103	 114
 103	 115
 103	 116
 103	 117
 103	 118
 104	 109
 104	 110
 104	 111
 104	 112
 104	 113
 104	 117
 104	 118
 104	 119
 105	 106
 105	 108
 105	 112
 106	 114
 106	 117
 106	 118
 106	 119
 107	 113
 107	 115
 107	 117
 107	 118
 107	 119
 108	 109
 108	 114
 108	 117
 109	 112
 109	 114
 109	 117
 109	 118
 110	 111
 110	 112
 110	 114
 110	 117
 110	 118
 111	 117
 111	 119
 112	 115
 112	 116
 113	 115
 113	 117
 114	 115
 114	 117
 114	 119
 115	 116
 116	 119
 117	 119
 118	 119
;
